50
120
93
87
85
85
82
79
76
75
70
70
69
69
68
67
66
64
62
61
59
58
58
57
56
56
55
53
53
49
45
45
43
42
40
30
30
24
24
22
22
21
20
18
18
14
13
11
9
9
6
3
